Solver command line: ['C:\\Program Files\\IBM\\ILOG\\CPLEX_Studio2211\\cplex\\bin\\x64_win64\\cplex.exe']


Welcome to IBM(R) ILOG(R) CPLEX(R) Interactive Optimizer 22.1.1.0
  with Simplex, Mixed Integer & Barrier Optimizers
5725-A06 5725-A29 5724-Y48 5724-Y49 5724-Y54 5724-Y55 5655-Y21
Copyright IBM Corp. 1988, 2022.  All Rights Reserved.

Type 'help' for a list of available commands.
Type 'help' followed by a command name for more
information on commands.

CPLEX> Logfile 'cplex.log' closed.
Logfile 'C:\Users\wangy\Documents\GitHub\re_optimization\result_site_specific_2\tmp2djkyvx2.cplex.log' open.
CPLEX> Problem 'C:\Users\wangy\Documents\GitHub\re_optimization\result_site_specific_2\tmpf_hmevp0.pyomo.lp' read.
Read time = 0.30 sec. (8.90 ticks)
CPLEX> Problem name         : C:\Users\wangy\Documents\GitHub\re_optimization\result_site_specific_2\tmpf_hmevp0.pyomo.lp
Objective sense      : Minimize
Variables            :   64323  [Nneg: 30685,  Free: 11732,  Binary: 6,
                                 Other: 21900]
Objective nonzeros   :      14
Linear constraints   :   86219  [Less: 42355,  Greater: 5,  Equal: 43859]
  Nonzeros           :  219253
  RHS nonzeros       :    3650

Variables            : Min LB: 0.000000         Max UB: 1.000000       
Objective nonzeros   : Min   : 1.000000         Max   : 1.000000       
Linear constraints   :
  Nonzeros           : Min   : 0.001768004      Max   : 2000.000       
  RHS nonzeros       : Min   : 0.07700000       Max   : 100000.0       
CPLEX> Version identifier: 22.1.1.0 | 2022-11-27 | 9160aff4d
Tried aggregator 3 times.
MIP Presolve eliminated 53508 rows and 33065 columns.
Aggregator did 10825 substitutions.
Reduced MIP has 21886 rows, 20433 columns, and 65867 nonzeros.
Reduced MIP has 2 binaries, 0 generals, 0 SOSs, and 0 indicators.
Presolve time = 0.19 sec. (218.21 ticks)
Found incumbent of value 1.3226537e+07 after 0.28 sec. (308.33 ticks)
Probing time = 0.00 sec. (1.13 ticks)
Tried aggregator 1 time.
Detecting symmetries...
MIP Presolve eliminated 1221 rows and 1221 columns.
Reduced MIP has 20665 rows, 19212 columns, and 62815 nonzeros.
Reduced MIP has 2 binaries, 0 generals, 0 SOSs, and 0 indicators.
Presolve time = 0.05 sec. (49.34 ticks)
Probing time = 0.00 sec. (0.96 ticks)
MIP emphasis: balance optimality and feasibility.
MIP search method: dynamic search.
Parallel mode: deterministic, using up to 16 threads.
Root relaxation solution time = 0.47 sec. (422.43 ticks)

        Nodes                                         Cuts/
   Node  Left     Objective  IInf  Best Integer    Best Bound    ItCnt     Gap

*     0+    0                       1.32265e+07     -717.5517           100.01%
      0     0  1387180.9652     1   1.32265e+07  1387180.9652     3995   89.51%
*     0+    0                      1387194.2669  1387180.9652             0.00%

Root node processing (before b&c):
  Real time             =    1.03 sec. (874.59 ticks)
Parallel b&c, 16 threads:
  Real time             =    0.00 sec. (0.00 ticks)
  Sync time (average)   =    0.00 sec.
  Wait time (average)   =    0.00 sec.
                          ------------
Total (root+branch&cut) =    1.03 sec. (874.59 ticks)

Solution pool: 2 solutions saved.

MIP - Integer optimal, tolerance (0.0001/1e-06):  Objective =  1.3871942669e+06
Current MIP best bound =  1.3871809652e+06 (gap = 13.3017, 0.00%)
Solution time =    1.03 sec.  Iterations = 3995  Nodes = 0 (1)
Deterministic time = 874.77 ticks  (847.65 ticks/sec)

CPLEX> Incumbent solution written to file 'C:\Users\wangy\Documents\GitHub\re_optimization\result_site_specific_2\tmp74lzt0sm.cplex.sol'.
CPLEX> 
